% File represents an instance of a Composite Structure problem to be solved by a CP framework
% Created on 2025-03-26 10:41:35.069
T = 54;
n = 25;
m = 40;
edges = [(2, 1),
(7, 6),
(12, 11),
(17, 16),
(22, 21),
(3, 2),
(8, 7),
(13, 12),
(18, 17),
(23, 22),
(3, 4),
(8, 9),
(13, 14),
(19, 18),
(24, 23),
(5, 4),
(10, 9),
(15, 14),
(20, 19),
(25, 24),
(1, 6),
(6, 11),
(11, 16),
(16, 21),
(2, 7),
(7, 12),
(12, 17),
(17, 22),
(3, 8),
(8, 13),
(13, 18),
(18, 23),
(4, 9),
(9, 14),
(19, 14),
(19, 24),
(5, 10),
(10, 15),
(20, 15),
(20, 25)];
counts = [|20, 4, 20, 6,
|20, 6, 20, 6,
|20, 8, 20, 6,
|20, 8, 20, 2,
|20, 12, 20, 2,
|18, 4, 18, 4,
|18, 6, 18, 4,
|20, 6, 20, 4,
|20, 6, 20, 2,
|20, 10, 20, 2,
|16, 2, 16, 4,
|16, 4, 16, 4,
|18, 4, 18, 4,
|18, 4, 18, 2,
|20, 4, 20, 2,
|14, 2, 14, 2,
|16, 2, 16, 2,
|16, 2, 16, 4,
|18, 4, 18, 4,
|20, 4, 20, 4,
|12, 2, 12, 2,
|14, 2, 14, 2,
|16, 2, 16, 2,
|16, 4, 16, 2,
|18, 4, 18, 2|];
